1572.34,36.02,43.16
1588.38,35.65,42.73
1699.61,33.32,39.93
1589.53,35.63,42.7
1590.17,35.61,42.68
1625.29,34.84,41.76
1624.03,34.87,41.79
1580.41,35.83,42.94
1687.79,33.55,40.21
1467.86,38.58,46.24
1706.73,33.18,39.77
1570.59,36.06,43.21
1656.26,34.19,40.98
1534.65,36.9,44.22
1596.8,35.46,42.5
1491.42,37.97,45.51
1549.75,36.54,43.79
1619.54,34.97,41.91
1560.51,36.29,43.49
1610.36,35.17,42.14
